<instance format="XCSP3" type="CSP">
  <variables>
    <var id="x0"> 2 8 10 16 17 </var>
    <var id="x1"> 2 10 16 </var>
    <var id="x2"> 0 2 8 10 16 </var>
    <var id="x3"> 2 17 </var>
    <var id="x4"> 8 15..17 </var>
    <var id="x5"> 0 2 15 </var>
    <var id="x6"> 0 10 15 </var>
    <var id="x7"> 1 3..5 9 </var>
    <var id="x8"> 1 5 10 17 </var>
    <var id="x9"> 1 5 10 </var>
    <var id="x10"> 5 9 12 17 </var>
    <var id="x11"> 1 4 5 </var>
    <var id="x12"> 1 5 9 10 12 </var>
    <var id="x13"> 3 9 17 </var>
    <var id="x14"> 4 9 10 17 </var>
    <var id="x15"> 2 5 11 15 </var>
    <var id="x16"> 1 5 9 11 16 </var>
    <var id="x17"> 9 11 16 </var>
    <var id="x18"> 1 2 5 10 11 16 </var>
    <var id="x19"> 1 2 10 16 </var>
    <var id="x20"> 9 11 15 16 </var>
    <var id="x21"> 1 5 9..11 15 </var>
    <var id="x22"> 1 2 9 11 15 </var>
    <var id="x23"> 2 3 5 15 </var>
    <var id="x24"> 1 5 9 12 16 </var>
    <var id="x25"> 3 9 16 </var>
    <var id="x26"> 1 2 5 16 </var>
    <var id="x27"> 2 3 9 12 16 </var>
    <var id="x28"> 2 3 5 9 15 </var>
    <var id="x29"> 2 5 9 12 16 </var>
    <var id="x30"> 1 2 12 </var>
    <var id="x31"> 1 2 8 17 </var>
    <var id="x32"> 0 2 3 9 </var>
    <var id="x33"> 2..4 9 17 </var>
    <var id="x34"> 1 2 4 17 </var>
    <var id="x35"> 0 1 9 </var>
    <var id="x36"> 0 2 3 8 9 17 </var>
    <var id="x37"> 1 2 4 8 9 </var>
    <var id="x38"> 4 9 17 </var>
    <var id="x39"> 0 3 5 11 </var>
    <var id="x40"> 5 8 11 16 </var>
    <var id="x41"> 0 6 8 16 </var>
    <var id="x42"> 3 5 9 </var>
    <var id="x43"> 5 6 9 16 </var>
    <var id="x44"> 6 </var>
    <var id="x45"> 5 8 9 11 16 </var>
    <var id="x46"> 0 3 8 9 16 </var>
    <var id="x47"> 0 2 3 6 9 12 </var>
    <var id="x48"> 2 3 9 </var>
    <var id="x49"> 0 3 9 11 </var>
    <var id="x50"> 0..2 </var>
    <var id="x51"> 1 2 6 12 </var>
    <var id="x52"> 0..2 6 </var>
    <var id="x53"> 0 1 9 11 12 </var>
    <var id="x54"> 1 2 9 11 </var>
    <var id="x55"> 4 5 11 14 </var>
    <var id="x56"> 1 4 5 11 </var>
    <var id="x57"> 6 11 14 </var>
    <var id="x58"> 1 4 5 8 </var>
    <var id="x59"> 4 5 10 </var>
    <var id="x60"> 5 8 11 </var>
    <var id="x61"> 1 4..6 </var>
    <var id="x62"> 4 10 11 14 </var>
    <var id="x63"> 2 4 5 14 </var>
    <var id="x64"> 7 9 14 </var>
    <var id="x65"> 2 5 10 </var>
    <var id="x66"> 2 9 10 </var>
    <var id="x67"> 2 4 5 9 10 </var>
    <var id="x68"> 4 9 13 </var>
    <var id="x69"> 2 5 10 14 </var>
    <var id="x70"> 5 9 </var>
    <var id="x71"> 0 6 9 11 16 </var>
    <var id="x72"> 5 8 9 16 </var>
    <var id="x73"> 0 6 8 16 </var>
    <var id="x74"> 0 5 8 16 </var>
    <var id="x75"> 5 8 9 11 16 17 </var>
    <var id="x76"> 0 5 6 </var>
    <var id="x77"> 0 8 9 16 17 </var>
    <var id="x78"> 8 9 11 </var>
    <var id="x79"> 2 12 16 </var>
    <var id="x80"> 9 11 13 15 16 </var>
    <var id="x81"> 2 5 16 </var>
    <var id="x82"> 5 9 11 12 15 16 </var>
    <var id="x83"> 2 5 13 15 </var>
    <var id="x84"> 2 9 16 </var>
    <var id="x85"> 2 9 11 13 15 </var>
    <var id="x86"> 9 11 </var>
    <var id="x87"> 0 3 12 16 </var>
    <var id="x88"> 12 16 </var>
    <var id="x89"> 0 3 13 16 </var>
    <var id="x90"> 12 13 </var>
    <var id="x91"> 0 12 </var>
    <var id="x92"> 8 13 </var>
    <var id="x93"> 14 </var>
    <var id="x94"> 3 6 7 9 11 14 </var>
    <var id="x95"> 2 3 9 </var>
    <var id="x96"> 2 3 6 9 </var>
    <var id="x97"> 2 6 9 </var>
    <var id="x98"> 2 14 </var>
    <var id="x99"> 2 6 7 13 </var>
    <var id="x100"> 2 6 13 </var>
    <var id="x101"> 7 9 11 14 </var>
    <var id="x102"> 1 4 5 12 16 </var>
    <var id="x103"> 4 5 15 </var>
    <var id="x104"> 0 4 15 16 </var>
    <var id="x105"> 0 1 5 8 16 </var>
    <var id="x106"> 5 8 12 15 16 </var>
    <var id="x107"> 0 1 4 5 15 </var>
    <var id="x108"> 0 1 5 12 15 </var>
    <var id="x109"> 0 8 16 </var>
    <var id="x110"> 0 2 4 5 15 </var>
    <var id="x111"> 4 5 9 </var>
    <var id="x112"> 2 4 5 9 </var>
    <var id="x113"> 0 2 9 10 </var>
    <var id="x114"> 0 2 10 </var>
    <var id="x115"> 0 2 9 </var>
    <var id="x116"> 2 4 9 15 </var>
    <var id="x117"> 0 2 4 11 </var>
    <var id="x118"> 1 4 11 16 </var>
    <var id="x119"> 1 2 4 16 </var>
    <var id="x120"> 0..2 10 16 </var>
    <var id="x121"> 2 10 16 </var>
    <var id="x122"> 1 2 4 7 </var>
    <var id="x123"> 0 1 10 11 </var>
    <var id="x124"> 0 2 7 16 </var>
    <var id="x125"> 6 7 9 16 </var>
    <var id="x126"> 2 4 9 16 </var>
    <var id="x127"> 2 6 9 12 16 </var>
    <var id="x128"> 2 6 12 16 </var>
    <var id="x129"> 2 4 9 17 </var>
    <var as="x127" id="x130"/>
    <var id="x131"> 4 9 16 </var>
    <var id="x132"> 4 7 9 17 </var>
    <var id="x133"> 2 4 11 15 </var>
    <var id="x134"> 1 4 11 16 </var>
    <var id="x135"> 11 16 </var>
    <var id="x136"> 1 2 4 16 </var>
    <var id="x137"> 1 2 10 11 16 17 </var>
    <var id="x138"> 1 2 10 16 </var>
    <var id="x139"> 4 11 15 16 </var>
    <var id="x140"> 1 2 4 11 15 </var>
  </variables>
  <constraints>
    <group>
      <allDifferent> %... </allDifferent>
      <args> x0 x1 x2 x3 x4 x5 x6 </args>
      <args> x7 x8 x9 x10 x11 x12 x13 x14 </args>
      <args> x15 x16 x17 x18 x19 x20 x21 x22 </args>
      <args> x23 x24 x25 x26 x27 x28 x29 x30 </args>
      <args> x31 x32 x33 x34 x35 x36 x37 x38 </args>
      <args> x39 x40 x41 x42 x43 x44 x45 x46 </args>
      <args> x47 x48 x49 x50 x51 x52 x53 x54 </args>
      <args> x55 x56 x57 x58 x59 x60 x61 x62 </args>
      <args> x63 x64 x65 x66 x67 x68 x69 x70 </args>
      <args> x71 x72 x73 x74 x75 x76 x77 x78 </args>
      <args> x79 x80 x81 x82 x83 x84 x85 x86 </args>
      <args> x87 x88 x89 x90 x91 x92 x93 </args>
      <args> x94 x95 x96 x97 x98 x99 x100 x101 </args>
      <args> x102 x103 x104 x105 x106 x107 x108 x109 </args>
      <args> x110 x111 x112 x113 x114 x115 x116 </args>
      <args> x117 x118 x119 x120 x121 x122 x123 x124 </args>
      <args> x125 x126 x127 x128 x129 x130 x131 x132 </args>
      <args> x133 x134 x135 x136 x137 x138 x139 x140 </args>
      <args> x15 x23 x39 x55 x63 x110 x117 x133 </args>
      <args> x16 x24 x56 x102 x111 x118 x134 </args>
      <args> x17 x25 x57 x64 x71 x94 x125 x135 </args>
      <args> x7 x58 x72 x95 x112 x119 x126 x136 </args>
      <args> x0 x8 x18 x26 x31 x40 x65 x137 </args>
      <args> x27 x32 x47 x66 x87 x96 x113 x127 </args>
      <args> x19 x41 x73 x79 x114 x120 x128 x138 </args>
      <args> x28 x33 x42 x48 x59 x67 x103 x129 </args>
      <args> x1 x29 x43 x88 x97 x121 x130 </args>
      <args> x20 x49 x68 x80 x89 x104 x131 x139 </args>
      <args> x2 x9 x50 x69 x74 x81 x98 x105 </args>
      <args> x3 x30 x34 x44 x51 x90 x99 x122 </args>
      <args> x4 x10 x45 x60 x70 x75 x82 x106 </args>
      <args> x5 x11 x52 x61 x76 x83 x100 x107 </args>
      <args> x6 x12 x21 x35 x53 x91 x108 x123 </args>
      <args> x13 x36 x46 x77 x84 x109 x115 x124 </args>
      <args> x22 x37 x54 x78 x85 x92 x116 x140 </args>
      <args> x14 x38 x62 x86 x93 x101 x132 </args>
    </group>
  </constraints>
</instance>

